\ This file was automatically generated by Zimpl
\ var x1 >= 0;
\ var x2 >= 0;
\ var x3 >= 0;
\ var x4 >= 0;
\ maximize Z:     1*x1;
\ subto c1:     2*x1 + 2*x2 + 1*x3 - 1*x4 == 10;
\ subto c2:     3*x1 + 3*x2 + 1*x1 - 2*x4 == 11;
\ subto c3:     1*x1 + 1*x2 + 0*x3 - 1*x4 == 1;
\Problem name: pp
Maximize
 Z:  + x1
Subject to
 c1_1:
  - x4 + x3 +2 x2 +2 x1 = 10
 c2_1:
  -2 x4 +3 x2 +4 x1 = 11
 c3_1:
  - x4 + x2 + x1 = 1
Bounds
 0 <= x1 <= +inf
 0 <= x2 <= +inf
 0 <= x3 <= +inf
 0 <= x4 <= +inf
End
